Fe O                                    
   1.0000000000000000     
     5.1036239698251933    0.0000000000000000    0.0000000000000000
    -2.5518119849126366    4.4198680092316334    0.0000000000000000
     0.0000000000000000    0.0000000000000000   33.2674087554205755
   Fe   O 
    12    18
Direct
  0.0000000000000000  0.0000000000000000  0.4378361383222611
  0.6666666699999908  0.3333333300000021  0.5771449939178623
  0.3333333299999808  0.6666666700000050  0.3223134894408943
  0.0000000000000000  0.0000000000000000  0.6466678347305859
  0.6666666699999908  0.3333333300000021  0.3633261407514468
  0.3333333299999808  0.6666666700000050  0.5086976116259621
  0.0000000000000000  0.0000000000000000  0.3533321652694070
  0.6666666699999908  0.3333333300000021  0.4913023883740379
  0.3333333299999808  0.6666666700000050  0.6366738592485532
  0.0000000000000000  0.0000000000000000  0.5621638616777389
  0.6666666699999908  0.3333333300000021  0.6776865105591057
  0.3333333299999808  0.6666666700000050  0.4228550060821306
  0.6877617147911081  0.9973345162023080  0.3945094068602941
  0.3606975246614539  0.3318073477479189  0.5348723137813494
  0.0270758654293175  0.6801714375157601  0.6741333554290847
  0.6904271984208918  0.6877617146406152  0.6054905931397059
  0.3469044372253691  0.0270758656091346  0.3258666445709153
  0.0288901664971704  0.3606975240948671  0.4651276862186435
  0.0026654837921214  0.6904271987990498  0.3945094068602941
  0.6681926524554953  0.0288901672880897  0.5348723137813494
  0.3198285618157115  0.3469044374927108  0.6741333554290847
  0.3122382852088990  0.0026654837976920  0.6054905931397059
  0.9729241345706612  0.3198285624842612  0.3258666445709153
  0.6393024753385248  0.6681926522520953  0.4651276862186435
  0.3095728015790868  0.3122382853593919  0.3945094068602941
  0.9711098335028154  0.6393024759051542  0.5348723137813494
  0.6530955627746167  0.9729241343908726  0.6741333554290847
  0.9973345162078715  0.3095728012009644  0.6054905931397059
  0.6801714381842672  0.6530955625073034  0.3258666445709153
  0.3318073475444905  0.9711098327119174  0.4651276862186435

  0.00000000E+00  0.00000000E+00  0.00000000E+00
  0.00000000E+00  0.00000000E+00  0.00000000E+00
  0.00000000E+00  0.00000000E+00  0.00000000E+00
  0.00000000E+00  0.00000000E+00  0.00000000E+00
  0.00000000E+00  0.00000000E+00  0.00000000E+00
  0.00000000E+00  0.00000000E+00  0.00000000E+00
  0.00000000E+00  0.00000000E+00  0.00000000E+00
  0.00000000E+00  0.00000000E+00  0.00000000E+00
  0.00000000E+00  0.00000000E+00  0.00000000E+00
  0.00000000E+00  0.00000000E+00  0.00000000E+00
  0.00000000E+00  0.00000000E+00  0.00000000E+00
  0.00000000E+00  0.00000000E+00  0.00000000E+00
  0.00000000E+00  0.00000000E+00  0.00000000E+00
  0.00000000E+00  0.00000000E+00  0.00000000E+00
  0.00000000E+00  0.00000000E+00  0.00000000E+00
  0.00000000E+00  0.00000000E+00  0.00000000E+00
  0.00000000E+00  0.00000000E+00  0.00000000E+00
  0.00000000E+00  0.00000000E+00  0.00000000E+00
  0.00000000E+00  0.00000000E+00  0.00000000E+00
  0.00000000E+00  0.00000000E+00  0.00000000E+00
  0.00000000E+00  0.00000000E+00  0.00000000E+00
  0.00000000E+00  0.00000000E+00  0.00000000E+00
  0.00000000E+00  0.00000000E+00  0.00000000E+00
  0.00000000E+00  0.00000000E+00  0.00000000E+00
  0.00000000E+00  0.00000000E+00  0.00000000E+00
  0.00000000E+00  0.00000000E+00  0.00000000E+00
  0.00000000E+00  0.00000000E+00  0.00000000E+00
  0.00000000E+00  0.00000000E+00  0.00000000E+00
  0.00000000E+00  0.00000000E+00  0.00000000E+00
  0.00000000E+00  0.00000000E+00  0.00000000E+00
