Fe O 
 1.0000000000000000
     2.5518119849125136   -4.4198680092318510    0.0000000000000000
     2.5518119849125136    4.4198680092317053   -0.0000000000000000
    -0.0000000000000000   -0.0000000000000000   13.8200793661757810
 Fe  O  
  12  18
Cartesian
 -0.0000000000000000  0.0000000000000001  4.8830283813692814
  2.5518119849124834 -1.4732893658763979  9.4897214573610320
  2.5518119849124834  1.4732893658763977  0.2763353053776418
  0.0000000000000000  0.0000000000000000 11.7930680644571169
  2.5518119849124834 -1.4732893658763979  2.5796817742730784
  2.5518119849124834  1.4732893658763977  7.1863749884655261
  0.0000000000000000 -0.0000000000000000  2.0270113017185758
  2.5518119849124834 -1.4732893658763979  6.6337043777103286
  2.5518119849124834  1.4732893658763977 11.2403975919027896
  0.0000000000000000 -0.0000000000000000  8.9370509848066444
  2.5518119849124834 -1.4732893658763979 13.5437440607982591
  2.5518119849124834  1.4732893658763977  4.3303579088147695
  1.7756756438676837 -3.0755604349582737  3.4550198415439430
  1.7756756438676837 -0.1289817916027954  8.0617129175354520
  1.7756756438676837  2.8175969401500014 12.6684061317281333
  3.5513512868158004  0.0000000000000003 10.3650595246318069
  0.9995393019033062 -1.4732893658764092  1.1516732344477316
  0.9995393019033062  1.4732893658764403  5.7583664486402002
  1.7756756438676837  3.0755604349582288  3.4550198415439430
  1.7756756438676837 -2.8175969401500311  8.0617129175354520
  1.7756756438676837  0.1289817916027944 12.6684061317281333
  0.7761363410448401 -1.3443075742736301 10.3650595246318069
  3.3279483259573306 -2.8175969401499921  1.1516732344477316
  3.3279483259573306  0.1289817916027928  5.7583664486402002
  1.5522726830091964  0.0000000000000001  3.4550198415439430
  4.1040846679217173 -1.4732893658764201  8.0617129175354520
  4.1040846679217182  1.4732893658764079 12.6684061317281333
  0.7761363410448401  1.3443075742736037 10.3650595246318069
  3.3279483259573306 -0.1289817916027931  1.1516732344477316
  3.3279483259573306  2.8175969401499876  5.7583664486402002
